NAME: n300q35J.tsp, 300 nodes, semilla 999
COMMENT: Problema aleatorio de norma euclidea
DIMENSION: 300
CAPACITY: 35
EDGE_WEIGHT_TYPE: EUC_2D
NODE_COORD_SECTION
1   0.0000   0.0000
2 -258.0000 -199.0000
3 244.0000 486.0000
4 -59.0000 464.0000
5 -209.0000 245.0000
6 -191.0000 -274.0000
7  68.0000 436.0000
8 490.0000 -252.0000
9 -97.0000  72.0000
10 -32.0000 165.0000
11 -330.0000 146.0000
12 353.0000 302.0000
13 -362.0000 224.0000
14 -270.0000 -430.0000
15 414.0000 421.0000
16 -237.0000 -276.0000
17 106.0000   3.0000
18 360.0000 -189.0000
19 371.0000 269.0000
20 390.0000 421.0000
21 173.0000 -359.0000
22 -149.0000 -267.0000
23 -15.0000 478.0000
24 352.0000  15.0000
25 -444.0000 -29.0000
26 -341.0000 -49.0000
27 440.0000 136.0000
28 480.0000 -228.0000
29 -447.0000 -367.0000
30 -127.0000 -406.0000
31  51.0000 -296.0000
32 -178.0000 120.0000
33 -294.0000 -294.0000
34 -394.0000 -465.0000
35 -247.0000 261.0000
36 254.0000 117.0000
37 -353.0000 -497.0000
38 353.0000  89.0000
39 -169.0000 -69.0000
40 257.0000 -377.0000
41 -272.0000 464.0000
42 116.0000 126.0000
43 220.0000 -141.0000
44 483.0000 425.0000
45 284.0000 -90.0000
46 -352.0000 275.0000
47 -108.0000 -175.0000
48 118.0000 134.0000
49 459.0000 -408.0000
50 -467.0000 453.0000
51 -274.0000 -355.0000
52 173.0000 200.0000
53 198.0000 103.0000
54 395.0000 -272.0000
55 479.0000 -22.0000
56 -422.0000 308.0000
57 185.0000 385.0000
58 100.0000 -188.0000
59 380.0000 -78.0000
60 130.0000 -420.0000
61  40.0000 -359.0000
62 224.0000 107.0000
63 -469.0000 240.0000
64 307.0000  20.0000
65 -257.0000 422.0000
66 143.0000 -372.0000
67 459.0000 -315.0000
68 -419.0000 126.0000
69 -208.0000 -432.0000
70 234.0000 243.0000
71 399.0000 348.0000
72 -50.0000 -386.0000
73 145.0000 -42.0000
74 315.0000 -217.0000
75 119.0000 477.0000
76 -252.0000 -242.0000
77  11.0000  34.0000
78 408.0000 475.0000
79  87.0000 486.0000
80 303.0000  75.0000
81 149.0000 418.0000
82 308.0000 246.0000
83 182.0000 189.0000
84 -68.0000 -218.0000
85 311.0000  25.0000
86 462.0000  42.0000
87 432.0000 -153.0000
88 -437.0000 285.0000
89 -425.0000 333.0000
90 336.0000 -368.0000
91 -227.0000 221.0000
92 -79.0000 -249.0000
93 -161.0000 295.0000
94 417.0000 115.0000
95 -184.0000 338.0000
96  39.0000 259.0000
97 -284.0000 431.0000
98 307.0000 -391.0000
99  32.0000 -490.0000
100 -294.0000 -438.0000
101 -311.0000 461.0000
102 382.0000 189.0000
103 -53.0000  61.0000
104 -135.0000 -432.0000
105 355.0000 -104.0000
106 -389.0000 375.0000
107 206.0000 -71.0000
108 490.0000  87.0000
109 146.0000 -206.0000
110 -430.0000 -349.0000
111 -498.0000 -44.0000
112 -290.0000 -428.0000
113 -298.0000 -462.0000
114 293.0000 142.0000
115 -326.0000 -153.0000
116 -128.0000 -104.0000
117 472.0000  89.0000
118 171.0000 -132.0000
119 -322.0000 -114.0000
120 -439.0000 -320.0000
121 116.0000 -114.0000
122 -235.0000 -156.0000
123 -118.0000 -311.0000
124 -145.0000  29.0000
125   6.0000 291.0000
126 -100.0000  58.0000
127  65.0000 -260.0000
128 -166.0000 -483.0000
129 -190.0000 -19.0000
130 -407.0000 -380.0000
131 370.0000 -360.0000
132 -275.0000 417.0000
133 -278.0000 287.0000
134 412.0000 -154.0000
135 194.0000 -472.0000
136 -85.0000 -355.0000
137 -364.0000 -224.0000
138 -402.0000 -473.0000
139 -367.0000 365.0000
140 -97.0000 347.0000
141 170.0000 -224.0000
142 311.0000 -335.0000
143 489.0000 -293.0000
144 115.0000 -200.0000
145 -272.0000 -73.0000
146 176.0000 477.0000
147 218.0000 178.0000
148  50.0000 493.0000
149 -47.0000 127.0000
150 330.0000 -220.0000
151 -336.0000 277.0000
152 -322.0000 151.0000
153 -254.0000 197.0000
154 245.0000 263.0000
155 -413.0000 134.0000
156 -149.0000 -225.0000
157 -90.0000 403.0000
158 -422.0000 -312.0000
159 -410.0000 -120.0000
160 -110.0000 163.0000
161 360.0000 241.0000
162 186.0000 -41.0000
163 -319.0000  60.0000
164 423.0000  -5.0000
165 -108.0000  71.0000
166 -212.0000 446.0000
167  87.0000 -339.0000
168 395.0000 -75.0000
169 423.0000 477.0000
170 -445.0000 246.0000
171 240.0000 483.0000
172 -133.0000  90.0000
173 409.0000 483.0000
174 421.0000 231.0000
175 -216.0000 -404.0000
176 -89.0000 -217.0000
177 -478.0000 178.0000
178 102.0000 -29.0000
179 -18.0000 -338.0000
180 -93.0000 301.0000
181 -53.0000  49.0000
182  59.0000 -260.0000
183 -242.0000 -178.0000
184 -366.0000 433.0000
185 -143.0000 -432.0000
186 -289.0000 -446.0000
187 384.0000 213.0000
188 446.0000 500.0000
189 -395.0000 -207.0000
190 434.0000 -18.0000
191 -449.0000 -499.0000
192 -207.0000 412.0000
193 -217.0000 458.0000
194 117.0000 -231.0000
195 -213.0000 -327.0000
196 -105.0000 -479.0000
197  46.0000 -84.0000
198 -177.0000 142.0000
199 111.0000 -318.0000
200 -15.0000 105.0000
201  -7.0000 191.0000
202 -390.0000 387.0000
203 -53.0000 -102.0000
204 -428.0000 253.0000
205 345.0000 -268.0000
206 -385.0000 -19.0000
207 -261.0000 325.0000
208 104.0000 465.0000
209 -307.0000 -39.0000
210 -474.0000 -271.0000
211 -249.0000 -141.0000
212 266.0000 -264.0000
213  29.0000 -311.0000
214 -369.0000 -445.0000
215 -127.0000 -296.0000
216  67.0000 -354.0000
217 -81.0000 -311.0000
218 484.0000 299.0000
219 -78.0000 -36.0000
220 -210.0000 -204.0000
221 461.0000 468.0000
222 -164.0000 -309.0000
223 261.0000  36.0000
224 -26.0000 -136.0000
225 -51.0000 264.0000
226 -198.0000 347.0000
227 434.0000 231.0000
228 157.0000  66.0000
229 -280.0000 -153.0000
230 -21.0000 -299.0000
231 -92.0000 201.0000
232 -250.0000 496.0000
233  12.0000 334.0000
234 -492.0000 -39.0000
235 -405.0000 -157.0000
236 364.0000 -382.0000
237 -462.0000  25.0000
238 -86.0000 -375.0000
239 -141.0000 217.0000
240 321.0000 335.0000
241  -1.0000 -130.0000
242  56.0000 -298.0000
243 -308.0000 -54.0000
244  32.0000  63.0000
245 -377.0000 494.0000
246 469.0000 -46.0000
247 376.0000 492.0000
248 -69.0000  62.0000
249 -210.0000 327.0000
250 498.0000 164.0000
251 -72.0000  46.0000
252 -347.0000 407.0000
253 302.0000 356.0000
254 -232.0000 487.0000
255 -353.0000 228.0000
256 -447.0000 271.0000
257 276.0000 443.0000
258 273.0000  67.0000
259 213.0000 -130.0000
260 -158.0000  86.0000
261  -6.0000 -34.0000
262 106.0000 -493.0000
263 269.0000 -23.0000
264  65.0000 -206.0000
265 -242.0000  99.0000
266 144.0000 -411.0000
267 -129.0000 397.0000
268 -262.0000 123.0000
269 234.0000 412.0000
270 495.0000 -203.0000
271 263.0000 -491.0000
272 103.0000 336.0000
273 354.0000 112.0000
274 148.0000  -6.0000
275 -179.0000 250.0000
276 -205.0000 -304.0000
277 -462.0000  -8.0000
278  77.0000 -25.0000
279 -53.0000 -400.0000
280 -136.0000 -430.0000
281 173.0000 -62.0000
282  75.0000 -268.0000
283 282.0000 264.0000
284 -277.0000 462.0000
285 494.0000   2.0000
286 -401.0000 195.0000
287 253.0000 -492.0000
288 194.0000 -303.0000
289  99.0000 396.0000
290 -286.0000 227.0000
291 100.0000 111.0000
292 -339.0000 189.0000
293 -363.0000 -469.0000
294 -332.0000 328.0000
295 -166.0000 386.0000
296 -470.0000 311.0000
297 434.0000 -403.0000
298  30.0000 -487.0000
299  79.0000 327.0000
300 -498.0000 320.0000
DISPLAY_DATA_SECTION:
 1  250  250
 2  121  150
 3  372  493
 4  220  482
 5  145  372
 6  154  113
 7  284  468
 8  495  124
 9  201  286
10  234  332
11   85  323
12  426  401
13   69  362
14  115   35
15  457  460
16  131  112
17  303  251
18  430  155
19  435  384
20  445  460
21  336   70
22  175  116
23  242  489
24  426  257
25   28  235
26   79  225
27  470  318
28  490  136
29   26   66
30  186   47
31  275  102
32  161  310
33  103  103
34   53   17
35  126  380
36  377  308
37   73    1
38  426  294
39  165  215
40  378   61
41  114  482
42  308  313
43  360  179
44  491  462
45  392  205
46   74  387
47  196  162
48  309  317
49  479   46
50   16  476
51  113   72
52  336  350
53  349  301
54  447  114
55  489  239
56   39  404
57  342  442
58  300  156
59  440  211
60  315   40
61  270   70
62  362  303
63   15  370
64  403  260
65  121  461
66  321   64
67  479   92
68   40  313
69  146   34
70  367  371
71  449  424
72  225   57
73  322  229
74  407  141
75  309  488
76  124  129
77  255  267
78  454  487
79  293  493
80  401  287
81  324  459
82  404  373
83  341  344
84  216  141
85  405  262
86  481  271
87  466  173
88   31  392
89   37  416
90  418   66
91  136  360
92  210  125
93  169  397
94  458  307
95  158  419
96  269  379
97  108  465
98  403   54
99  266    5
100  103   31
101   94  480
102  441  344
103  223  280
104  182   34
105  427  198
106   55  437
107  353  214
108  495  293
109  323  147
110   35   75
111    1  228
112  105   36
113  101   19
114  396  321
115   87  173
116  186  198
117  486  294
118  335  184
119   89  193
120   30   90
121  308  193
122  132  172
123  191   94
124  177  264
125  253  395
126  200  279
127  282  120
128  167    8
129  155  240
130   46   60
131  435   70
132  112  458
133  111  393
134  456  173
135  347   14
136  207   72
137   68  138
138   49   13
139   66  432
140  201  423
141  335  138
142  405   82
143  494  103
144  307  150
145  114  213
146  338  488
147  359  339
148  275  496
149  226  313
150  415  140
151   82  388
152   89  325
153  123  348
154  372  381
155   43  317
156  175  137
157  205  451
158   39   94
159   45  190
160  195  331
161  430  370
162  343  229
163   90  280
164  461  247
165  196  285
166  144  473
167  293   80
168  447  212
169  461  488
170   27  373
171  370  491
172  183  295
173  454  491
174  460  365
175  142   48
176  205  141
177   11  339
178  301  235
179  241   81
180  203  400
181  223  274
182  279  120
183  129  161
184   67  466
185  178   34
186  105   27
187  442  356
188  473  500
189   52  146
190  467  241
191   25    0
192  146  456
193  141  479
194  308  134
195  143   86
196  197   10
197  273  208
198  161  321
199  305   91
200  242  302
201  246  345
202   55  443
203  223  199
204   36  376
205  422  116
206   57  240
207  119  412
208  302  482
209   96  230
210   13  114
211  125  179
212  383  118
213  264   94
214   65   27
215  186  102
216  283   73
217  209   94
218  492  399
219  211  232
220  145  148
221  480  484
222  168   95
223  380  268
224  237  182
225  224  382
226  151  423
227  467  365
228  328  283
229  110  173
230  239  100
231  204  350
232  125  498
233  256  417
234    4  230
235   47  171
236  432   59
237   19  262
238  207   62
239  179  358
240  410  417
241  249  185
242  278  101
243   96  223
244  266  281
245   61  497
246  484  227
247  438  496
248  215  281
249  145  413
250  499  332
251  214  273
252   76  453
253  401  428
254  134  493
255   73  364
256   26  385
257  388  471
258  386  283
259  356  185
260  171  293
261  247  233
262  303    3
263  384  238
264  282  147
265  129  299
266  322   44
267  185  448
268  119  311
269  367  456
270  497  148
271  381    4
272  301  418
273  427  306
274  324  247
275  160  375
276  147   98
277   19  246
278  288  237
279  223   50
280  182   35
281  336  219
282  287  116
283  391  382
284  111  481
285  497  251
286   49  347
287  376    4
288  347   98
289  299  448
290  107  363
291  300  305
292   80  344
293   68   15
294   84  414
295  167  443
296   15  405
297  467   48
298  265    6
299  289  413
300    1  410
DEMAND_SECTION
1 3
2 -6
3 -4
4 5
5 1
6 7
7 -7
8 0
9 -6
10 6
11 0
12 4
13 6
14 3
15 8
16 0
17 9
18 1
19 10
20 -2
21 -1
22 -6
23 -2
24 2
25 6
26 9
27 7
28 -1
29 7
30 9
31 -5
32 -7
33 -4
34 -6
35 9
36 -8
37 0
38 5
39 -8
40 -5
41 -6
42 3
43 0
44 2
45 -6
46 3
47 7
48 -6
49 8
50 -1
51 -1
52 -2
53 2
54 -8
55 7
56 10
57 -1
58 2
59 9
60 -2
61 -7
62 6
63 4
64 9
65 9
66 -6
67 -2
68 0
69 0
70 -6
71 1
72 1
73 10
74 0
75 10
76 10
77 4
78 4
79 2
80 9
81 -1
82 -3
83 0
84 3
85 -8
86 -2
87 -1
88 -7
89 -1
90 0
91 -7
92 -1
93 -9
94 0
95 -4
96 -7
97 6
98 0
99 -7
100 4
101 -1
102 0
103 0
104 0
105 -3
106 4
107 -3
108 -1
109 -7
110 0
111 0
112 -3
113 9
114 0
115 -5
116 -10
117 -3
118 0
119 0
120 -3
121 8
122 0
123 -8
124 7
125 5
126 -1
127 4
128 -2
129 -4
130 2
131 6
132 -5
133 10
134 8
135 -6
136 6
137 8
138 -9
139 1
140 10
141 1
142 -1
143 6
144 4
145 -1
146 6
147 -9
148 0
149 -6
150 0
151 -5
152 -10
153 -6
154 6
155 9
156 2
157 -3
158 -3
159 0
160 1
161 -8
162 2
163 -8
164 -10
165 -8
166 8
167 -3
168 7
169 5
170 8
171 -7
172 4
173 2
174 -2
175 1
176 -3
177 7
178 1
179 -3
180 -5
181 9
182 -6
183 -1
184 6
185 1
186 -9
187 3
188 9
189 -3
190 -5
191 -1
192 2
193 -8
194 7
195 10
196 -6
197 7
198 2
199 3
200 4
201 -1
202 0
203 4
204 9
205 6
206 2
207 -9
208 0
209 -4
210 2
211 -9
212 -6
213 4
214 -3
215 -4
216 0
217 0
218 10
219 1
220 -3
221 -5
222 -8
223 8
224 5
225 -6
226 -3
227 -8
228 -6
229 -8
230 0
231 -9
232 -5
233 -7
234 -6
235 0
236 1
237 2
238 0
239 -3
240 -2
241 -3
242 -7
243 7
244 9
245 -7
246 5
247 6
248 2
249 -8
250 -4
251 -1
252 -4
253 6
254 -4
255 -5
256 -7
257 -7
258 10
259 -7
260 -7
261 9
262 -8
263 8
264 -6
265 9
266 3
267 -3
268 -5
269 2
270 2
271 -1
272 -8
273 1
274 -9
275 5
276 2
277 1
278 -8
279 6
280 -3
281 5
282 1
283 1
284 -4
285 -9
286 7
287 8
288 4
289 -3
290 -5
291 2
292 5
293 1
294 -4
295 -3
296 -2
297 -9
298 -4
299 8
300 2
EOF